80
1592
40
0 1
0 5
0 7
0 8
0 10
0 11
0 12
0 14
0 15
0 16
0 17
0 18
0 20
0 21
0 22
0 23
0 25
0 28
0 29
0 31
0 35
0 37
0 38
0 39
0 41
0 42
0 44
0 45
0 47
0 48
0 49
0 50
0 51
0 54
0 56
0 57
0 59
0 61
0 62
0 64
0 65
0 68
0 70
0 72
0 73
0 74
0 75
0 78
0 79
1 2
1 4
1 7
1 8
1 9
1 11
1 13
1 14
1 15
1 16
1 17
1 19
1 20
1 21
1 22
1 26
1 27
1 28
1 29
1 30
1 31
1 32
1 35
1 37
1 38
1 40
1 42
1 47
1 48
1 50
1 52
1 53
1 55
1 57
1 60
1 61
1 63
1 64
1 65
1 68
1 70
1 72
1 74
1 75
1 76
1 77
1 78
1 79
2 4
2 5
2 7
2 11
2 13
2 15
2 18
2 20
2 21
2 31
2 36
2 37
2 42
2 45
2 46
2 47
2 48
2 51
2 52
2 53
2 55
2 56
2 57
2 58
2 60
2 63
2 65
2 67
2 68
2 69
2 75
2 76
2 77
3 8
3 9
3 11
3 15
3 16
3 18
3 20
3 21
3 22
3 23
3 27
3 29
3 31
3 32
3 34
3 35
3 36
3 37
3 39
3 41
3 42
3 46
3 47
3 51
3 52
3 55
3 56
3 57
3 58
3 59
3 61
3 66
3 67
3 68
3 70
3 71
3 74
3 77
3 78
3 79
4 9
4 11
4 13
4 16
4 18
4 19
4 20
4 21
4 23
4 25
4 26
4 27
4 32
4 33
4 34
4 35
4 38
4 39
4 40
4 41
4 44
4 47
4 52
4 53
4 55
4 56
4 60
4 63
4 64
4 65
4 69
4 74
4 76
4 79
5 7
5 9
5 10
5 14
5 16
5 17
5 19
5 20
5 21
5 23
5 24
5 25
5 27
5 28
5 29
5 30
5 31
5 32
5 33
5 35
5 37
5 38
5 46
5 47
5 52
5 53
5 54
5 59
5 60
5 62
5 64
5 65
5 67
5 68
5 69
5 70
5 71
5 72
5 73
5 77
5 78
5 79
6 10
6 11
6 12
6 13
6 15
6 16
6 19
6 20
6 21
6 23
6 24
6 26
6 31
6 35
6 38
6 39
6 40
6 41
6 42
6 43
6 47
6 48
6 52
6 56
6 58
6 61
6 64
6 65
6 69
6 72
6 73
6 75
6 77
7 10
7 12
7 13
7 14
7 15
7 17
7 20
7 21
7 22
7 26
7 27
7 28
7 30
7 31
7 32
7 34
7 38
7 40
7 43
7 44
7 46
7 50
7 51
7 53
7 54
7 56
7 57
7 58
7 60
7 63
7 64
7 69
7 70
7 71
7 72
7 73
7 74
7 75
7 76
8 9
8 11
8 12
8 15
8 16
8 18
8 21
8 24
8 25
8 28
8 29
8 33
8 37
8 38
8 43
8 44
8 45
8 46
8 47
8 49
8 52
8 54
8 55
8 60
8 61
8 62
8 63
8 68
8 71
8 72
8 74
8 77
9 12
9 13
9 15
9 16
9 17
9 20
9 22
9 23
9 24
9 28
9 30
9 32
9 34
9 36
9 37
9 38
9 41
9 42
9 43
9 45
9 46
9 49
9 50
9 51
9 54
9 57
9 58
9 59
9 60
9 64
9 65
9 68
9 70
9 71
9 72
9 73
9 75
9 79
10 14
10 20
10 23
10 25
10 26
10 31
10 33
10 34
10 35
10 40
10 42
10 43
10 45
10 46
10 47
10 50
10 51
10 52
10 58
10 59
10 60
10 61
10 62
10 66
10 67
10 70
10 71
10 72
10 73
10 74
10 75
10 77
10 78
10 79
11 12
11 13
11 15
11 17
11 19
11 22
11 23
11 24
11 25
11 26
11 27
11 28
11 30
11 33
11 35
11 39
11 42
11 46
11 49
11 51
11 55
11 57
11 60
11 61
11 63
11 65
11 67
11 69
11 70
11 71
11 72
11 73
11 75
11 76
12 14
12 16
12 18
12 19
12 21
12 23
12 24
12 26
12 28
12 29
12 30
12 31
12 33
12 34
12 36
12 38
12 39
12 40
12 41
12 43
12 48
12 51
12 56
12 57
12 60
12 62
12 63
12 66
12 68
12 70
12 73
12 75
12 76
12 77
12 78
12 79
13 14
13 15
13 16
13 19
13 20
13 21
13 22
13 23
13 25
13 26
13 27
13 28
13 29
13 30
13 31
13 32
13 34
13 35
13 37
13 39
13 40
13 41
13 42
13 44
13 46
13 47
13 48
13 49
13 51
13 52
13 56
13 57
13 61
13 62
13 64
13 66
13 67
13 68
13 76
13 77
13 78
13 79
14 15
14 16
14 17
14 19
14 20
14 21
14 22
14 27
14 29
14 30
14 31
14 33
14 34
14 35
14 37
14 40
14 44
14 45
14 46
14 48
14 49
14 50
14 53
14 56
14 57
14 59
14 60
14 62
14 65
14 67
14 68
14 70
14 73
14 74
14 75
14 76
15 16
15 23
15 26
15 28
15 30
15 35
15 38
15 45
15 46
15 51
15 53
15 58
15 61
15 62
15 63
15 65
15 66
15 68
15 69
15 70
15 72
15 75
15 78
16 21
16 22
16 23
16 24
16 27
16 28
16 29
16 31
16 32
16 34
16 36
16 37
16 38
16 40
16 41
16 42
16 45
16 46
16 49
16 50
16 51
16 53
16 54
16 55
16 56
16 57
16 59
16 66
16 67
16 69
16 70
16 71
16 72
16 73
16 74
16 75
16 77
16 78
16 79
17 19
17 22
17 23
17 24
17 25
17 28
17 31
17 34
17 35
17 36
17 37
17 38
17 39
17 40
17 41
17 43
17 44
17 45
17 50
17 51
17 53
17 55
17 56
17 57
17 58
17 60
17 63
17 64
17 66
17 67
17 69
17 71
17 72
17 76
17 77
18 19
18 21
18 22
18 23
18 26
18 30
18 34
18 35
18 38
18 41
18 45
18 50
18 51
18 57
18 58
18 59
18 65
18 67
18 71
18 73
18 77
19 20
19 21
19 23
19 30
19 31
19 33
19 34
19 35
19 38
19 39
19 41
19 46
19 49
19 53
19 59
19 61
19 62
19 66
19 68
19 72
19 74
19 77
20 21
20 22
20 23
20 25
20 26
20 27
20 28
20 30
20 33
20 34
20 36
20 37
20 39
20 40
20 45
20 46
20 49
20 50
20 51
20 52
20 53
20 58
20 59
20 60
20 62
20 63
20 64
20 66
20 72
20 73
20 74
20 77
20 79
21 22
21 28
21 29
21 30
21 32
21 33
21 35
21 37
21 39
21 40
21 41
21 44
21 46
21 47
21 49
21 50
21 52
21 54
21 55
21 60
21 61
21 63
21 64
21 67
21 68
21 70
21 71
21 73
21 75
21 76
21 77
21 78
22 24
22 26
22 27
22 31
22 33
22 34
22 35
22 36
22 37
22 41
22 43
22 45
22 47
22 48
22 49
22 52
22 54
22 57
22 59
22 61
22 64
22 66
22 70
22 73
22 74
22 76
22 77
22 78
23 27
23 28
23 29
23 34
23 35
23 37
23 40
23 41
23 44
23 47
23 48
23 49
23 50
23 51
23 54
23 56
23 57
23 58
23 61
23 62
23 63
23 64
23 66
23 69
23 70
23 71
23 76
24 25
24 27
24 28
24 29
24 31
24 35
24 36
24 38
24 40
24 45
24 47
24 48
24 49
24 52
24 54
24 58
24 59
24 60
24 61
24 63
24 66
24 67
24 69
24 70
24 71
24 73
24 75
24 77
24 78
24 79
25 26
25 30
25 35
25 36
25 39
25 42
25 44
25 45
25 49
25 50
25 51
25 52
25 53
25 55
25 56
25 57
25 58
25 60
25 62
25 63
25 64
25 65
25 68
25 71
25 74
25 75
25 77
26 27
26 30
26 35
26 37
26 39
26 42
26 45
26 47
26 48
26 51
26 52
26 54
26 55
26 57
26 58
26 59
26 60
26 61
26 63
26 66
26 67
26 69
26 70
26 71
26 72
26 75
26 79
27 28
27 29
27 32
27 33
27 35
27 38
27 39
27 40
27 41
27 43
27 44
27 45
27 49
27 50
27 51
27 52
27 54
27 55
27 62
27 63
27 64
27 65
27 67
27 68
27 69
27 73
27 74
27 77
27 78
28 29
28 30
28 33
28 34
28 36
28 38
28 39
28 40
28 43
28 45
28 46
28 47
28 52
28 56
28 58
28 61
28 62
28 64
28 65
28 70
28 71
28 73
28 74
28 75
28 76
28 77
28 78
28 79
29 31
29 32
29 36
29 38
29 39
29 42
29 44
29 47
29 48
29 50
29 51
29 52
29 54
29 55
29 56
29 57
29 58
29 63
29 64
29 65
29 67
29 68
29 71
29 72
29 74
29 75
29 76
29 77
29 79
30 32
30 35
30 39
30 41
30 43
30 44
30 45
30 46
30 49
30 50
30 54
30 55
30 56
30 57
30 61
30 62
30 66
30 67
30 68
30 69
30 70
30 71
30 72
30 73
30 75
30 77
31 32
31 33
31 36
31 39
31 42
31 46
31 50
31 51
31 56
31 57
31 58
31 60
31 62
31 63
31 65
31 67
31 68
31 69
31 72
31 74
31 75
31 76
31 77
32 35
32 36
32 37
32 39
32 40
32 41
32 42
32 44
32 48
32 55
32 56
32 57
32 58
32 59
32 61
32 64
32 70
32 72
32 74
32 75
32 77
32 79
33 36
33 37
33 38
33 44
33 46
33 47
33 49
33 50
33 51
33 54
33 55
33 58
33 59
33 62
33 63
33 65
33 66
33 68
33 70
33 71
33 77
34 35
34 41
34 43
34 45
34 46
34 47
34 48
34 49
34 51
34 52
34 54
34 56
34 57
34 64
34 65
34 68
34 69
34 70
34 71
34 74
34 75
34 76
34 77
34 78
35 38
35 40
35 42
35 43
35 48
35 49
35 51
35 52
35 53
35 56
35 57
35 59
35 62
35 63
35 65
35 66
35 67
35 72
35 73
35 75
35 76
35 77
35 79
36 41
36 43
36 46
36 47
36 48
36 52
36 53
36 54
36 55
36 58
36 59
36 60
36 62
36 63
36 65
36 67
36 69
36 71
36 72
36 79
37 38
37 39
37 40
37 41
37 43
37 44
37 45
37 47
37 48
37 49
37 53
37 55
37 56
37 57
37 58
37 60
37 61
37 64
37 66
37 67
37 69
37 70
37 71
37 77
37 79
38 41
38 45
38 48
38 49
38 50
38 54
38 56
38 57
38 59
38 62
38 64
38 66
38 68
38 69
38 72
38 73
38 74
38 76
38 77
38 79
39 42
39 44
39 45
39 47
39 48
39 49
39 50
39 53
39 54
39 56
39 57
39 59
39 60
39 64
39 66
39 70
40 41
40 44
40 46
40 47
40 49
40 51
40 52
40 53
40 61
40 62
40 63
40 67
40 71
40 72
40 73
40 74
40 77
40 78
40 79
41 42
41 43
41 46
41 47
41 49
41 51
41 52
41 55
41 56
41 57
41 59
41 60
41 61
41 62
41 63
41 64
41 65
41 66
41 69
41 70
41 71
41 72
41 73
41 74
41 77
41 79
42 43
42 49
42 51
42 53
42 54
42 56
42 57
42 59
42 60
42 62
42 63
42 65
42 69
42 70
42 71
42 75
43 45
43 47
43 48
43 50
43 51
43 54
43 56
43 57
43 58
43 60
43 62
43 63
43 67
43 70
43 71
43 74
43 75
43 76
43 77
43 78
43 79
44 47
44 48
44 50
44 52
44 53
44 55
44 57
44 60
44 63
44 66
44 67
44 68
44 71
44 72
44 74
44 75
44 76
45 46
45 47
45 50
45 51
45 58
45 62
45 63
45 65
45 66
45 68
45 69
45 70
45 71
45 75
45 76
45 77
45 79
46 47
46 49
46 52
46 55
46 58
46 59
46 62
46 63
46 64
46 65
46 66
46 71
46 73
46 74
46 77
47 48
47 50
47 53
47 56
47 57
47 60
47 64
47 76
47 77
47 79
48 51
48 52
48 54
48 55
48 56
48 60
48 62
48 65
48 66
48 67
48 68
48 72
48 74
48 75
48 76
48 78
48 79
49 52
49 56
49 57
49 60
49 63
49 64
49 65
49 66
49 68
49 70
49 72
49 74
49 75
49 76
49 79
50 51
50 52
50 54
50 55
50 57
50 59
50 66
50 67
50 69
50 71
50 73
50 76
50 77
50 78
51 52
51 53
51 56
51 58
51 59
51 62
51 65
51 66
51 72
51 73
51 74
51 77
52 54
52 55
52 58
52 59
52 61
52 64
52 65
52 69
52 71
52 74
52 76
52 78
53 57
53 60
53 61
53 66
53 67
53 70
53 72
53 76
53 77
53 78
54 55
54 56
54 60
54 62
54 63
54 65
54 66
54 67
54 68
54 70
54 72
54 76
55 56
55 57
55 58
55 60
55 63
55 64
55 65
55 69
55 73
55 74
55 76
55 77
56 57
56 60
56 62
56 63
56 64
56 65
56 66
56 68
56 70
56 74
56 75
56 78
56 79
57 61
57 69
57 72
57 73
57 74
57 75
57 79
58 59
58 60
58 61
58 62
58 65
58 70
58 71
58 73
58 74
58 75
58 77
58 78
58 79
59 60
59 61
59 62
59 67
59 69
59 70
59 75
59 76
59 78
60 62
60 67
60 71
60 73
60 77
61 62
61 63
61 65
61 66
61 69
61 71
61 74
61 76
61 77
62 63
62 64
62 65
62 67
62 69
62 70
62 71
62 73
62 75
62 76
62 77
62 79
63 65
63 68
63 69
63 71
63 73
63 74
63 78
63 79
64 67
64 68
64 72
64 73
64 74
64 75
64 76
64 77
64 79
65 68
65 69
65 72
65 74
65 75
65 76
66 70
66 72
66 73
66 74
66 76
66 77
66 78
66 79
67 69
67 74
67 75
67 76
67 77
68 69
68 72
68 73
68 74
68 77
68 78
69 70
69 73
69 74
69 77
70 71
70 75
70 76
71 73
71 74
71 76
71 79
72 79
73 75
74 76
75 76
75 77
77 79
11 33
9 67
20 21
25 40
24 32
8 79
30 36
66 77
27 41
7 57
5 12
18 46
53 74
22 26
6 52
2 4
15 47
29 55
14 63
59 71
16 69
35 45
73 75
1 62
44 54
0 43
17 23
19 39
3 34
38 42
56 72
65 70
31 64
37 51
60 76
10 48
28 78
13 49
58 68
50 61
